
  32    4
  10   10   10   10

   0   0   0   0   0   8 2 14 26 27 28 29 30 31 
   5   1   0   1   1   1 3 
  10   1   1   3   0   1 4 
   8   0   5   4   5   4 25 24 23 5 
  10   5   3   7   0   2 22 6 
   9   3   0   9   3   2 21 7 
   6   4   6   4   0   2 20 8 
   7   4   0   4   3   3 19 18 9 
   6   0   5   4   6   1 10 
   9   2   0   1   3   1 11 
   7   3   0   2   3   1 12 
   3   3   3   5   0   1 13 
   3   3   0   5   2   1 15 
   8   9   0   4   4   1 15 
   2   0   4   3   5   1 16 
   6   2   0   4   3   1 17 
   5   4   6   4   0   1 32
   6   6   0   6   4   1 32
   5   7   0   5   4   1 32
   7   3   0   1   8   1 32
   1   5   7   0   6   1 32
   4   4   3   0   1   1 32
   4   3   2   0   5   1 32
   7   3   4   0   6   1 32
   3   7   3   0   4   1 32
   1   0   5   3   1   1 32
   1   0   5   6   4   1 32
   1   2   0   4   4   1 32
   3   0   2   5   8   1 32
   9   6   0   2   3   1 32
   6   6   0   4   4   1 32
   0   0   0   0   0   0 
